%%%%%%%%%%%%%%%%%%%%%%%%%%%%%%%%%%%%%%%%%%%%%%%%%%%%%%%%%%%%%%%%%%%%%%%%%
%FILE DATA:	Soccer Computational Problem for MiniZinc Models
%AUTHORS:	Robinson Duque, Alejandro Arbelaez, Juan Francisco Díaz
%CONTACT:  	robinson.duque@correounivalle.edu.co 
%LAST UPDATE:	May, 2018 
%ROUND ROBIN:2
%TEAMS:20
%PRESENT FIXTURE:25
%FIXTURES TO PLAY:13
%GAMES TO PLAY:130
%%%%%%%%%%%%%%%%%%%%%%%%%%%%%%%%%%%%%%%%%%%%%%%%%%%%%%%%%%%%%%%%%%%%%%%%%
%Number of teams:
n=20;

%For the purpose of our models, we offer two representations of the games to play, namely fixtures and games to play:

%Fixtures to play:
%fixtures=[|0,1,0,1,1,1,1,1,0,0,1,1,1,1,0,1,1,0,0,1
%|1,0,0,1,1,1,0,0,1,1,1,1,0,0,1,1,1,1,1,0
%|0,0,0,1,0,1,1,0,1,0,1,1,1,1,0,1,1,1,1,1
%|1,1,1,0,0,1,1,1,0,1,1,1,1,1,0,0,0,0,1,1
%|1,1,0,0,0,1,1,0,1,1,1,1,1,0,1,0,1,0,1,1
%|1,1,1,1,1,0,1,0,0,0,1,1,1,0,1,1,1,1,0,0
%|1,0,1,1,1,1,0,0,0,1,1,1,0,1,1,1,1,1,0,0
%|1,0,0,1,0,0,0,0,1,1,1,1,1,1,1,1,1,0,1,1
%|0,1,1,0,1,0,0,1,0,1,0,1,1,1,1,0,1,1,1,1
%|0,1,0,1,1,0,1,1,1,0,1,1,0,0,1,1,0,1,1,1
%|1,1,1,1,1,1,1,1,0,1,0,1,1,0,0,1,0,0,1,0
%|1,1,1,1,1,1,1,1,1,1,1,0,0,0,1,0,1,0,0,0
%|1,0,1,1,1,1,0,1,1,0,1,0,0,1,1,0,1,1,0,1
%|1,0,1,1,0,0,1,1,1,0,0,0,1,0,1,1,1,1,1,1
%|0,1,0,0,1,1,1,1,1,1,0,1,1,1,0,1,0,1,0,1
%|1,1,1,0,0,1,1,1,0,1,1,0,0,1,1,0,0,1,1,1
%|1,1,1,0,1,1,1,1,1,0,0,1,1,1,0,0,0,1,1,0
%|0,1,1,0,0,1,1,0,1,1,0,0,1,1,1,1,1,0,1,1
%|0,1,1,1,1,0,0,1,1,1,1,0,0,1,0,1,1,1,0,1
%|1,0,1,1,1,0,0,1,1,1,0,0,1,1,1,1,0,1,1,0|];

%Played Fixtures:
%PlayedFixtures=[|0,1,2,1,1,1,1,1,2,2,1,1,1,1,2,1,1,2,2,1
%|1,0,2,1,1,1,2,2,1,1,1,1,2,2,1,1,1,1,1,2
%|2,2,0,1,2,1,1,2,1,2,1,1,1,1,2,1,1,1,1,1
%|1,1,1,0,2,1,1,1,2,1,1,1,1,1,2,2,2,2,1,1
%|1,1,2,2,0,1,1,2,1,1,1,1,1,2,1,2,1,2,1,1
%|1,1,1,1,1,0,1,2,2,2,1,1,1,2,1,1,1,1,2,2
%|1,2,1,1,1,1,0,2,2,1,1,1,2,1,1,1,1,1,2,2
%|1,2,2,1,2,2,2,0,1,1,1,1,1,1,1,1,1,2,1,1
%|2,1,1,2,1,2,2,1,0,1,2,1,1,1,1,2,1,1,1,1
%|2,1,2,1,1,2,1,1,1,0,1,1,2,2,1,1,2,1,1,1
%|1,1,1,1,1,1,1,1,2,1,0,1,1,2,2,1,2,2,1,2
%|1,1,1,1,1,1,1,1,1,1,1,0,2,2,1,2,1,2,2,2
%|1,2,1,1,1,1,2,1,1,2,1,2,0,1,1,2,1,1,2,1
%|1,2,1,1,2,2,1,1,1,2,2,2,1,0,1,1,1,1,1,1
%|2,1,2,2,1,1,1,1,1,1,2,1,1,1,0,1,2,1,2,1
%|1,1,1,2,2,1,1,1,2,1,1,2,2,1,1,0,2,1,1,1
%|1,1,1,2,1,1,1,1,1,2,2,1,1,1,2,2,0,1,1,2
%|2,1,1,2,2,1,1,2,1,1,2,2,1,1,1,1,1,0,1,1
%|2,1,1,1,1,2,2,1,1,1,1,2,2,1,2,1,1,1,0,1
%|1,2,1,1,1,2,2,1,1,1,2,2,1,1,1,1,2,1,1,0|];

%Games to play:
games=[|2,1|4,1|4,2|4,3|5,1|5,2|6,1|6,2|6,3|6,4|6,5|7,1|7,3|7,4|7,5|7,6|8,1|8,4|9,2|9,3|9,5|9,8|10,2|10,4|10,5|10,7|10,8|10,9|11,1|11,2|11,3|11,4|11,5|11,6|11,7|11,8|11,10|12,1|12,2|12,3|12,4|12,5|12,6|12,7|12,8|12,9|12,10|12,11|13,1|13,3|13,4|13,5|13,6|13,8|13,9|13,11|14,1|14,3|14,4|14,7|14,8|14,9|14,13|15,2|15,5|15,6|15,7|15,8|15,9|15,10|15,12|15,13|15,14|16,1|16,2|16,3|16,6|16,7|16,8|16,10|16,11|16,14|16,15|17,1|17,2|17,3|17,5|17,6|17,7|17,8|17,9|17,12|17,13|17,14|18,2|18,3|18,6|18,7|18,9|18,10|18,13|18,14|18,15|18,16|18,17|19,2|19,3|19,4|19,5|19,8|19,9|19,10|19,11|19,14|19,16|19,17|19,18|20,1|20,3|20,4|20,5|20,8|20,9|20,10|20,13|20,14|20,15|20,16|20,18|20,19|];

%Played Games:
%PlayedGames=[|2,1|3,1|3,1|3,2|3,2|4,1|4,2|4,3|5,1|5,2|5,3|5,3|5,4|5,4|6,1|6,2|6,3|6,4|6,5|7,1|7,2|7,2|7,3|7,4|7,5|7,6|8,1|8,2|8,2|8,3|8,3|8,4|8,5|8,5|8,6|8,6|8,7|8,7|9,1|9,1|9,2|9,3|9,4|9,4|9,5|9,6|9,6|9,7|9,7|9,8|10,1|10,1|10,2|10,3|10,3|10,4|10,5|10,6|10,6|10,7|10,8|10,9|11,1|11,2|11,3|11,4|11,5|11,6|11,7|11,8|11,9|11,9|11,10|12,1|12,2|12,3|12,4|12,5|12,6|12,7|12,8|12,9|12,10|12,11|13,1|13,2|13,2|13,3|13,4|13,5|13,6|13,7|13,7|13,8|13,9|13,10|13,10|13,11|13,12|13,12|14,1|14,2|14,2|14,3|14,4|14,5|14,5|14,6|14,6|14,7|14,8|14,9|14,10|14,10|14,11|14,11|14,12|14,12|14,13|15,1|15,1|15,2|15,3|15,3|15,4|15,4|15,5|15,6|15,7|15,8|15,9|15,10|15,11|15,11|15,12|15,13|15,14|16,1|16,2|16,3|16,4|16,4|16,5|16,5|16,6|16,7|16,8|16,9|16,9|16,10|16,11|16,12|16,12|16,13|16,13|16,14|16,15|17,1|17,2|17,3|17,4|17,4|17,5|17,6|17,7|17,8|17,9|17,10|17,10|17,11|17,11|17,12|17,13|17,14|17,15|17,15|17,16|17,16|18,1|18,1|18,2|18,3|18,4|18,4|18,5|18,5|18,6|18,7|18,8|18,8|18,9|18,10|18,11|18,11|18,12|18,12|18,13|18,14|18,15|18,16|18,17|19,1|19,1|19,2|19,3|19,4|19,5|19,6|19,6|19,7|19,7|19,8|19,9|19,10|19,11|19,12|19,12|19,13|19,13|19,14|19,15|19,15|19,16|19,17|19,18|20,1|20,2|20,2|20,3|20,4|20,5|20,6|20,6|20,7|20,7|20,8|20,9|20,10|20,11|20,11|20,12|20,12|20,13|20,14|20,15|20,16|20,17|20,17|20,18|20,19|];

%Played Games - Win Results:
%% 0  1  0  0  1  1  0  1  0  0  0  0  0  0  1  0  0  1  0  0
%% 0  0  0  0  0  0  0  0  0  0  0  0  0  0  0  0  0  0  0  0
%% 0  0  0  0  0  0  0  0  0  0  0  0  0  1  0  0  0  0  0  0
%% 0  0  1  0  0  0  0  1  0  1  0  0  0  0  2  0  0  2  0  0
%% 0  0  0  0  0  0  0  0  1  0  0  0  0  0  0  0  0  0  0  0
%% 0  0  1  0  1  0  1  0  0  0  0  0  0  0  0  0  0  0  0  0
%% 0  0  0  0  0  0  0  0  0  0  0  0  0  0  0  0  0  0  0  0
%% 0  0  0  0  0  0  0  0  0  0  0  0  0  0  0  0  0  0  0  1
%% 0  0  0  0  0  0  0  0  0  0  0  0  0  0  0  0  0  0  0  0
%% 0  1  0  0  1  0  0  0  1  0  0  0  0  0  0  0  0  0  0  1
%% 1  0  0  1  0  0  1  1  0  1  0  0  1  0  0  0  0  2  0  0
%% 1  0  1  0  0  0  1  0  1  1  0  0  0  0  0  0  0  2  2  0
%% 0  0  0  0  1  1  0  1  0  0  0  0  0  0  1  0  0  1  2  1
%% 0  0  0  0  0  0  0  0  0  0  0  0  0  0  0  0  0  0  0  0
%% 0  0  0  0  0  1  0  0  0  0  0  0  0  1  0  0  0  0  2  1
%% 1  1  0  1  0  0  0  1  0  1  1  2  2  0  0  0  0  1  0  0
%% 1  1  1  2  0  1  1  1  0  0  2  0  0  0  0  2  0  1  0  0
%% 0  0  0  0  0  1  0  0  0  1  0  0  0  0  0  0  0  0  0  1
%% 0  1  1  0  0  0  0  0  0  0  0  0  0  1  0  0  0  0  0  0
%% 0  0  0  0  0  0  0  0  0  0  0  0  0  1  0  0  0  0  0  0
%Played Games - Tie Results:
%% 0  0  2  1  0  0  1  0  2  2  0  0  1  1  1  0  0  1  2  1
%% 0  0  2  1  1  1  2  2  1  0  1  1  2  2  1  0  0  1  0  2
%% 2  2  0  0  2  0  1  2  1  2  1  0  1  0  2  1  0  1  0  1
%% 1  1  0  0  2  1  1  0  2  0  0  1  1  1  0  1  0  0  1  1
%% 0  1  2  2  0  0  1  2  0  0  1  1  0  2  1  2  1  2  1  1
%% 0  1  0  1  0  0  0  2  2  2  1  1  0  2  0  1  0  0  2  2
%% 1  2  1  1  1  0  0  2  2  1  0  0  2  1  1  1  0  1  2  2
%% 0  2  2  0  2  2  2  0  1  1  0  1  0  1  1  0  0  2  1  0
%% 2  1  1  2  0  2  2  1  0  0  2  0  1  1  1  2  1  1  1  1
%% 2  0  2  0  0  2  1  1  0  0  0  0  2  2  1  0  2  0  1  0
%% 0  1  1  0  1  1  0  0  2  0  0  1  0  2  2  0  0  0  1  2
%% 0  1  0  1  1  1  0  1  0  0  1  0  2  2  1  0  1  0  0  2
%% 1  2  1  1  0  0  2  0  1  2  0  2  0  1  0  0  1  0  0  0
%% 1  2  0  1  2  2  1  1  1  2  2  2  1  0  0  1  1  1  0  0
%% 1  1  2  0  1  0  1  1  1  1  2  1  0  0  0  1  2  1  0  0
%% 0  0  1  1  2  1  1  0  2  0  0  0  0  1  1  0  0  0  1  1
%% 0  0  0  0  1  0  0  0  1  2  0  1  1  1  2  0  0  0  1  2
%% 1  1  1  0  2  0  1  2  1  0  0  0  0  1  1  0  0  0  1  0
%% 2  0  0  1  1  2  2  1  1  1  1  0  0  0  0  1  1  1  0  1
%% 1  2  1  1  1  2  2  0  1  0  2  2  0  0  0  1  2  0  1  0
%Played Games - Lose Results:
%% 0  0  0  0  0  0  0  0  0  0  1  1  0  0  0  1  1  0  0  0
%% 1  0  0  0  0  0  0  0  0  1  0  0  0  0  0  1  1  0  1  0
%% 0  0  0  1  0  1  0  0  0  0  0  1  0  0  0  0  1  0  1  0
%% 0  0  0  0  0  0  0  0  0  0  1  0  0  0  0  1  2  0  0  0
%% 1  0  0  0  0  1  0  0  0  1  0  0  1  0  0  0  0  0  0  0
%% 1  0  0  0  0  0  0  0  0  0  0  0  1  0  1  0  1  1  0  0
%% 0  0  0  0  0  1  0  0  0  0  1  1  0  0  0  0  1  0  0  0
%% 1  0  0  1  0  0  0  0  0  0  1  0  1  0  0  1  1  0  0  0
%% 0  0  0  0  1  0  0  0  0  1  0  1  0  0  0  0  0  0  0  0
%% 0  0  0  1  0  0  0  0  0  0  1  1  0  0  0  1  0  1  0  0
%% 0  0  0  0  0  0  0  0  0  0  0  0  0  0  0  1  2  0  0  0
%% 0  0  0  0  0  0  0  0  0  0  0  0  0  0  0  2  0  0  0  0
%% 0  0  0  0  0  0  0  0  0  0  1  0  0  0  0  2  0  0  0  0
%% 0  0  1  0  0  0  0  0  0  0  0  0  0  0  1  0  0  0  1  1
%% 1  0  0  2  0  0  0  0  0  0  0  0  1  0  0  0  0  0  0  0
%% 0  0  0  0  0  0  0  0  0  0  0  0  0  0  0  0  2  0  0  0
%% 0  0  0  0  0  0  0  0  0  0  0  0  0  0  0  0  0  0  0  0
%% 1  0  0  2  0  0  0  0  0  0  2  2  1  0  0  1  1  0  0  0
%% 0  0  0  0  0  0  0  0  0  0  0  2  2  0  2  0  0  0  0  0
%% 0  0  0  0  0  0  0  1  0  1  0  0  1  0  1  0  0  1  0  0

%%Initial points:
iPoints=[33, 20, 22, 35, 23, 26, 21, 21, 22, 28, 38, 41, 38, 21, 31, 45, 51, 21, 25, 22];

%%Initial positions:
%iPositions=[7, 20, 15, 6, 12, 10, 19, 18, 14, 9, 5, 3, 4, 17, 8, 2, 1, 16, 11, 13];

%%Position Constraints:
%numberPositionConstraints=1;

%%Total Fixtures:
%totalFixtures=38;

%%Fixtures to Play:
%fixturesToPlay=13;

%%Position Constraints Built With
%wantedPoints=[1, 1, 1, 3, 3, 1, 1, 0, 1, 0, 3, 0, 0, 0, 1, 1, 3, 1, 0, 3, 0, 3, 0, 0, 1, 3, 1, 0, 0, 1, 3, 3, 3, 3, 0, 3, 3, 3, 1, 3, 0, 1, 1, 1, 3, 1, 0, 0, 1, 3, 3, 1, 1, 1, 0, 1, 0, 0, 1, 3, 1, 0, 0, 3, 3, 0, 1, 0, 0, 1, 3, 1, 0, 3, 3, 3, 3, 1, 1, 1, 1, 1, 0, 1, 0, 3, 0, 1, 3, 1, 3, 3, 3, 1, 1, 0, 0, 3, 1, 1, 3, 3, 3, 1, 0, 1, 0, 0, 1, 1, 1, 0, 0, 1, 3, 1, 1, 1, 1, 3, 3, 3, 0, 3, 1, 1, 3, 1, 1, 0];

%POSITION CONSTRAINTS
%%[|teamID, operator, position|...]
%%operators index:
%%%1 for =  operator
%%%2 for >  operator
%%%3 for >= operator
%%%4 for <  operator
%%%5 for <= operator

positionConstraints=[|5,1,15|];

%SCORE VECTOR CONSTRAINTS
%%[|teamID, operator, wantedPoints|...]
%%operators index:
%%%1 for =  operator
%%%2 for >  operator
%%%3 for >= operator
%%%4 for <  operator
%%%5 for <= operator

%scoreVectorConstraints=[|5,1,38|];

%Instance Features:
%features=T,FP,TF,C,C/T,C/TF,FP/TF,FP/T,FP*C/T,FP*T/C,(C/T)*(FP/TF),Distance,Distance/C,Distance/T,Distance/(C*T)
%values=20,13,38,1,0.05,0.02631578947368421,0.3421052631578947,0.65,0.65,260.0,0.01710526315789474,3,3.0,0.15,0.15



gamesOfEveryTeam=[13,13,13,13,13,13,13,13,13,13,13,13,13,13,13,13,13,13,13,13];
weights=[|97,1,0,2|81,11,0,8|57,6,0,37|77,21,0,2|60,3,0,37|23,2,0,75|45,14,0,41|47,38,0,15|16,22,0,62|71,19,0,10|59,28,0,13|18,18,0,64|31,23,0,46|28,41,0,31|99,0,0,1|26,69,0,5|68,9,0,23|31,58,0,11|58,19,0,23|61,7,0,32|50,30,0,20|76,16,0,8|43,24,0,33|71,24,0,5|3,96,0,1|62,25,0,13|22,27,0,51|79,10,0,11|98,0,0,2|20,67,0,13|22,67,0,11|71,27,0,2|45,29,0,26|12,14,0,74|25,31,0,44|7,52,0,41|37,24,0,39|26,41,0,33|57,31,0,12|59,23,0,18|41,48,0,11|47,12,0,41|35,54,0,11|71,26,0,3|80,12,0,8|0,46,0,54|22,75,0,3|55,38,0,7|1,44,0,55|14,56,0,30|63,22,0,15|39,21,0,40|18,67,0,15|4,90,0,6|76,11,0,13|68,26,0,6|16,1,0,83|38,32,0,30|72,18,0,10|32,31,0,37|1,1,0,98|36,54,0,10|29,68,0,3|36,35,0,29|60,18,0,22|94,6,0,0|32,57,0,11|91,8,0,1|14,36,0,50|77,15,0,8|61,18,0,21|2,86,0,12|46,8,0,46|52,40,0,8|64,31,0,5|82,14,0,4|65,11,0,24|39,57,0,4|69,26,0,5|84,6,0,10|77,9,0,14|91,9,0,0|88,1,0,11|3,24,0,73|28,44,0,28|16,13,0,71|25,25,0,50|47,45,0,8|44,52,0,4|8,28,0,64|40,25,0,35|10,81,0,9|66,26,0,8|33,15,0,52|28,1,0,71|2,80,0,18|42,16,0,42|71,2,0,27|13,10,0,77|24,72,0,4|42,26,0,32|19,42,0,39|68,23,0,9|53,19,0,28|81,3,0,16|65,0,0,35|48,26,0,26|15,55,0,30|14,41,0,45|9,32,0,59|9,41,0,50|78,10,0,12|22,63,0,15|84,16,0,0|92,3,0,5|30,68,0,2|78,17,0,5|64,4,0,32|25,29,0,46|27,58,0,15|27,36,0,37|22,70,0,8|79,11,0,10|15,60,0,25|48,11,0,41|34,5,0,61|1,84,0,15|5,6,0,89|78,4,0,18|84,12,0,4|];